presolving:
(round 1, fast)       0 del vars, 165 del conss, 0 add conss, 159 chg bounds, 0 chg sides, 6 chg coeffs, 0 upgd conss, 0 impls, 3080 clqs
(round 2, fast)       55 del vars, 220 del conss, 0 add conss, 159 chg bounds, 0 chg sides, 6 chg coeffs, 0 upgd conss, 0 impls, 3080 clqs
   (0.0s) running MILP presolver
   (0.1s) MILP presolver (2 rounds): 0 aggregations, 0 fixings, 0 bound changes
(round 3, exhaustive) 55 del vars, 221 del conss, 0 add conss, 159 chg bounds, 0 chg sides, 6 chg coeffs, 3080 upgd conss, 0 impls, 3080 clqs
   (0.1s) probing: 51/3080 (1.7%) - 0 fixings, 0 aggregations, 0 implications, 0 bound changes
   (0.1s) probing aborted: 50/50 successive totally useless probings
   (0.2s) symmetry computation started: requiring (bin +, int -, cont +), (fixed: bin -, int +, cont -)
   (0.2s) no symmetry present
presolving (4 rounds: 4 fast, 2 medium, 2 exhaustive):
 55 deleted vars, 221 deleted constraints, 0 added constraints, 159 tightened bounds, 0 added holes, 0 changed sides, 6 changed coefficients
 0 implications, 3080 cliques
presolved problem has 3080 variables (3080 bin, 0 int, 0 impl, 0 cont) and 3082 constraints
   3080 constraints of type <setppc>
      2 constraints of type <linear>
Presolving Time: 0.16

 time | node  | left  |LP iter|LP it/n|mem/heur|mdpt |vars |cons |rows |cuts |sepa|confs|strbr|  dualbound   | primalbound  |  gap   | compl. 
p 0.2s|     1 |     0 |     0 |     - |  clique|   0 |3080 |3082 |3081 |   0 |  0 |   0 |   0 | 0.000000e+00 | 2.315490e+03 |    Inf | unknown
p 0.3s|     1 |     0 |     0 |     - | vbounds|   0 |3080 |3082 |3081 |   0 |  0 |   0 |   0 | 0.000000e+00 | 1.719022e+03 |    Inf | unknown
p 0.3s|     1 |     0 |     0 |     - | vbounds|   0 |3080 |3082 |3081 |   0 |  0 |   0 |   0 | 0.000000e+00 | 1.602212e+03 |    Inf | unknown
p 0.3s|     1 |     0 |    55 |     - | vbounds|   0 |3080 |3082 |3081 |   0 |  0 |   0 |   0 | 0.000000e+00 | 1.331979e+03 |    Inf | unknown
  0.7s|     1 |     0 |  2684 |     - |    40M |   0 |3080 |3082 |3081 |   0 |  0 |   0 |   0 | 7.834655e+02 | 1.331979e+03 |  70.01%| unknown
  1.4s|     1 |     0 |  2755 |     - |    43M |   0 |3080 |3082 |3082 |   1 |  1 |   0 |   0 | 7.851703e+02 | 1.331979e+03 |  69.64%| unknown
  2.2s|     1 |     0 |  2895 |     - |    47M |   0 |3080 |3082 |3084 |   3 |  2 |   0 |   0 | 7.876989e+02 | 1.331979e+03 |  69.10%| unknown
  3.1s|     1 |     0 |  3016 |     - |    52M |   0 |3080 |3082 |3086 |   5 |  3 |   0 |   0 | 7.893447e+02 | 1.331979e+03 |  68.74%| unknown
  3.2s|     1 |     0 |  3081 |     - |    53M |   0 |3080 |3082 |3089 |   8 |  4 |   0 |   0 | 7.901010e+02 | 1.331979e+03 |  68.58%| unknown
  3.3s|     1 |     0 |  3206 |     - |    53M |   0 |3080 |3082 |3091 |  10 |  5 |   0 |   0 | 7.916527e+02 | 1.331979e+03 |  68.25%| unknown
  4.6s|     1 |     0 |  3404 |     - |    56M |   0 |3080 |3082 |3092 |  11 |  6 |   0 |   0 | 7.927202e+02 | 1.331979e+03 |  68.03%| unknown
  4.8s|     1 |     0 |  3556 |     - |    57M |   0 |3080 |3082 |3094 |  13 |  7 |   0 |   0 | 7.936752e+02 | 1.331979e+03 |  67.82%| unknown
  5.0s|     1 |     0 |  3687 |     - |    57M |   0 |3080 |3082 |3096 |  15 |  8 |   0 |   0 | 7.944795e+02 | 1.331979e+03 |  67.65%| unknown
  5.2s|     1 |     0 |  3887 |     - |    57M |   0 |3080 |3082 |3098 |  17 |  9 |   0 |   0 | 7.954245e+02 | 1.331979e+03 |  67.46%| unknown
  5.3s|     1 |     0 |  3908 |     - |    58M |   0 |3080 |3082 |3099 |  18 | 10 |   0 |   0 | 7.955621e+02 | 1.331979e+03 |  67.43%| unknown
 time | node  | left  |LP iter|LP it/n|mem/heur|mdpt |vars |cons |rows |cuts |sepa|confs|strbr|  dualbound   | primalbound  |  gap   | compl. 
  5.4s|     1 |     0 |  4047 |     - |    58M |   0 |3080 |3082 |3100 |  19 | 11 |   0 |   0 | 7.962200e+02 | 1.331979e+03 |  67.29%| unknown
  5.5s|     1 |     0 |  4189 |     - |    58M |   0 |3080 |3082 |3102 |  21 | 12 |   0 |   0 | 7.971705e+02 | 1.331979e+03 |  67.09%| unknown
  5.6s|     1 |     0 |  4322 |     - |    59M |   0 |3080 |3083 |3103 |  22 | 13 |   1 |   0 | 7.975110e+02 | 1.331979e+03 |  67.02%| unknown
  5.6s|     1 |     0 |  4370 |     - |    59M |   0 |3080 |3084 |3104 |  23 | 14 |   2 |   0 | 7.977349e+02 | 1.331979e+03 |  66.97%| unknown
  5.7s|     1 |     0 |  4460 |     - |    60M |   0 |3080 |3084 |3105 |  24 | 15 |   2 |   0 | 7.982983e+02 | 1.331979e+03 |  66.85%| unknown
  5.9s|     1 |     0 |  4581 |     - |    60M |   0 |3080 |3084 |3106 |  25 | 16 |   2 |   0 | 7.986653e+02 | 1.331979e+03 |  66.78%| unknown
  6.1s|     1 |     0 |  4645 |     - |    60M |   0 |3080 |3084 |3107 |  26 | 17 |   2 |   0 | 7.988887e+02 | 1.331979e+03 |  66.73%| unknown
  6.2s|     1 |     0 |  4661 |     - |    61M |   0 |3080 |3085 |3108 |  27 | 18 |   3 |   0 | 7.989142e+02 | 1.331979e+03 |  66.72%| unknown
  6.3s|     1 |     0 |  4784 |     - |    61M |   0 |3080 |3085 |3109 |  28 | 19 |   3 |   0 | 7.990989e+02 | 1.331979e+03 |  66.69%| unknown
  6.4s|     1 |     0 |  4828 |     - |    61M |   0 |3080 |3085 |3110 |  29 | 20 |   3 |   0 | 7.991650e+02 | 1.331979e+03 |  66.67%| unknown
d 7.4s|     1 |     0 |  7114 |     - |farkasdi|   0 |3080 |3085 |3110 |   0 | 22 |   3 |   0 | 7.991650e+02 | 9.073411e+02 |  13.54%| unknown
  8.7s|     1 |     0 | 10867 |     - |    62M |   0 |3080 |3085 |3110 |  29 | 22 |   3 |   0 | 7.991650e+02 | 9.073411e+02 |  13.54%| unknown
  8.7s|     1 |     0 | 10867 |     - |    62M |   0 |3080 |3085 |2463 |  29 | 22 |   3 |   0 | 7.991650e+02 | 9.073411e+02 |  13.54%| unknown
  8.9s|     1 |     0 | 10947 |     - |    62M |   0 |3080 |2438 |2464 |  30 | 23 |   3 |   0 | 7.992809e+02 | 9.073411e+02 |  13.52%| unknown
(run 1, node 1) restarting after 890 global fixings of integer variables

(restart) converted 30 cuts from the global cut pool into linear constraints

presolving:
(round 1, fast)       890 del vars, 0 del conss, 0 add conss, 0 chg bounds, 0 chg sides, 0 chg coeffs, 0 upgd conss, 0 impls, 2203 clqs
   (9.0s) running MILP presolver
   (9.0s) MILP presolver found nothing
(round 2, exhaustive) 890 del vars, 0 del conss, 0 add conss, 0 chg bounds, 0 chg sides, 0 chg coeffs, 30 upgd conss, 0 impls, 2203 clqs
presolving (3 rounds: 3 fast, 2 medium, 2 exhaustive):
 890 deleted vars, 0 deleted constraints, 0 added constraints, 0 tightened bounds, 0 added holes, 0 changed sides, 0 changed coefficients
 0 implications, 2203 cliques
presolved problem has 2190 variables (2190 bin, 0 int, 0 impl, 0 cont) and 2238 constraints
     30 constraints of type <knapsack>
   2203 constraints of type <setppc>
      2 constraints of type <linear>
      3 constraints of type <logicor>
Presolving Time: 0.25
transformed 3/7 original solutions to the transformed problem space

 time | node  | left  |LP iter|LP it/n|mem/heur|mdpt |vars |cons |rows |cuts |sepa|confs|strbr|  dualbound   | primalbound  |  gap   | compl. 
  9.9s|     1 |     0 | 15433 |     - |    64M |   0 |2190 |2238 |2234 |   0 |  0 |   3 |   0 | 7.992809e+02 | 9.073411e+02 |  13.52%| unknown
 10.0s|     1 |     0 | 15433 |     - |    64M |   0 |2190 |2238 |2227 |   0 |  0 |   3 |   0 | 7.992809e+02 | 9.073411e+02 |  13.52%| unknown
 10.1s|     1 |     0 | 15539 |     - |    65M |   0 |2190 |2231 |2228 |   1 |  1 |   3 |   0 | 7.996346e+02 | 9.073411e+02 |  13.47%| unknown
 10.2s|     1 |     0 | 15539 |     - |    65M |   0 |2190 |2231 |2227 |   1 |  1 |   3 |   0 | 7.996346e+02 | 9.073411e+02 |  13.47%| unknown
 10.3s|     1 |     0 | 15597 |     - |    65M |   0 |2190 |2230 |2228 |   2 |  2 |   3 |   0 | 7.999348e+02 | 9.073411e+02 |  13.43%| unknown
 10.6s|     1 |     0 | 15659 |     - |    65M |   0 |2190 |2230 |2229 |   3 |  3 |   3 |   0 | 8.000824e+02 | 9.073411e+02 |  13.41%| unknown
 10.9s|     1 |     0 | 15689 |     - |    65M |   0 |2190 |2230 |2230 |   4 |  4 |   3 |   0 | 8.002003e+02 | 9.073411e+02 |  13.39%| unknown
 11.2s|     1 |     0 | 15743 |     - |    66M |   0 |2190 |2230 |2231 |   5 |  5 |   3 |   0 | 8.005414e+02 | 9.073411e+02 |  13.34%| unknown
 11.6s|     1 |     0 | 15805 |     - |    66M |   0 |2190 |2230 |2232 |   6 |  6 |   3 |   0 | 8.007984e+02 | 9.073411e+02 |  13.30%| unknown
 11.9s|     1 |     0 | 15909 |     - |    66M |   0 |2190 |2230 |2233 |   7 |  7 |   3 |   0 | 8.010166e+02 | 9.073411e+02 |  13.27%| unknown
 12.2s|     1 |     0 | 15918 |     - |    66M |   0 |2190 |2230 |2234 |   8 |  8 |   3 |   0 | 8.010521e+02 | 9.073411e+02 |  13.27%| unknown
 12.6s|     1 |     0 | 15985 |     - |    67M |   0 |2190 |2230 |2235 |   9 |  9 |   3 |   0 | 8.012021e+02 | 9.073411e+02 |  13.25%| unknown
 13.1s|     1 |     0 | 16106 |     - |    67M |   0 |2190 |2230 |2235 |  10 | 10 |   3 |   0 | 8.014931e+02 | 9.073411e+02 |  13.21%| unknown
 13.3s|     1 |     0 | 16144 |     - |    67M |   0 |2190 |2230 |2236 |  11 | 11 |   3 |   0 | 8.015675e+02 | 9.073411e+02 |  13.20%| unknown
 13.4s|     1 |     0 | 16207 |     - |    67M |   0 |2190 |2230 |2237 |  12 | 12 |   3 |   0 | 8.016698e+02 | 9.073411e+02 |  13.18%| unknown
 time | node  | left  |LP iter|LP it/n|mem/heur|mdpt |vars |cons |rows |cuts |sepa|confs|strbr|  dualbound   | primalbound  |  gap   | compl. 
 13.5s|     1 |     0 | 16275 |     - |    67M |   0 |2190 |2230 |2238 |  13 | 13 |   3 |   0 | 8.018797e+02 | 9.073411e+02 |  13.15%| unknown
L15.5s|     1 |     0 | 21995 |     - |    rens|   0 |2190 |2230 |2238 |  13 | 15 |   5 |   0 | 8.018797e+02 | 8.578825e+02 |   6.98%| unknown
 15.5s|     1 |     0 | 21995 |     - |    68M |   0 |2190 |2230 |2238 |  13 | 15 |   5 |   0 | 8.018797e+02 | 8.578825e+02 |   6.98%| unknown
 15.5s|     1 |     0 | 21995 |     - |    68M |   0 |2190 |2230 |2038 |  13 | 15 |   5 |   0 | 8.018797e+02 | 8.578825e+02 |   6.98%| unknown
 15.6s|     1 |     0 | 22038 |     - |    68M |   0 |2190 |2030 |2039 |  14 | 16 |   5 |   0 | 8.019633e+02 | 8.578825e+02 |   6.97%| unknown
(run 2, node 1) restarting after 336 global fixings of integer variables

(restart) converted 14 cuts from the global cut pool into linear constraints

presolving:
(round 1, fast)       336 del vars, 0 del conss, 0 add conss, 0 chg bounds, 0 chg sides, 0 chg coeffs, 0 upgd conss, 0 impls, 1875 clqs
   (15.6s) running MILP presolver
   (15.7s) MILP presolver found nothing
(round 2, exhaustive) 336 del vars, 0 del conss, 0 add conss, 0 chg bounds, 0 chg sides, 0 chg coeffs, 14 upgd conss, 0 impls, 1875 clqs
presolving (3 rounds: 3 fast, 2 medium, 2 exhaustive):
 336 deleted vars, 0 deleted constraints, 0 added constraints, 0 tightened bounds, 0 added holes, 0 changed sides, 0 changed coefficients
 0 implications, 1875 cliques
presolved problem has 1854 variables (1854 bin, 0 int, 0 impl, 0 cont) and 1924 constraints
     44 constraints of type <knapsack>
   1875 constraints of type <setppc>
      2 constraints of type <linear>
      3 constraints of type <logicor>
Presolving Time: 0.31
transformed 4/8 original solutions to the transformed problem space

 time | node  | left  |LP iter|LP it/n|mem/heur|mdpt |vars |cons |rows |cuts |sepa|confs|strbr|  dualbound   | primalbound  |  gap   | compl. 
 16.5s|     1 |     0 | 27899 |     - |    69M |   0 |1854 |1924 |1920 |   0 |  0 |   5 |   0 | 8.019633e+02 | 8.578825e+02 |   6.97%| unknown
 16.5s|     1 |     0 | 27899 |     - |    69M |   0 |1854 |1924 |1848 |   0 |  0 |   5 |   0 | 8.019633e+02 | 8.578825e+02 |   6.97%| unknown
 16.8s|     1 |     0 | 27941 |     - |    70M |   0 |1854 |1852 |1849 |   1 |  1 |   5 |   0 | 8.021750e+02 | 8.578825e+02 |   6.94%| unknown
 17.1s|     1 |     0 | 27968 |     - |    70M |   0 |1854 |1852 |1850 |   2 |  2 |   5 |   0 | 8.022279e+02 | 8.578825e+02 |   6.94%| unknown
 17.4s|     1 |     0 | 27993 |     - |    70M |   0 |1854 |1852 |1851 |   3 |  3 |   5 |   0 | 8.023262e+02 | 8.578825e+02 |   6.92%| unknown
 17.4s|     1 |     0 | 27993 |     - |    70M |   0 |1854 |1852 |1848 |   3 |  3 |   5 |   0 | 8.023262e+02 | 8.578825e+02 |   6.92%| unknown
 23.1s|     1 |     2 | 31077 |     - |    70M |   0 |1854 |1843 |1848 |   3 |  5 |  14 |  26 | 8.072497e+02 | 8.578825e+02 |   6.27%| unknown
(run 3, node 1) restarting after 91 global fixings of integer variables

(restart) converted 3 cuts from the global cut pool into linear constraints

presolving:
(round 1, fast)       91 del vars, 0 del conss, 0 add conss, 0 chg bounds, 0 chg sides, 0 chg coeffs, 0 upgd conss, 0 impls, 1785 clqs
(round 2, exhaustive) 91 del vars, 0 del conss, 0 add conss, 0 chg bounds, 0 chg sides, 0 chg coeffs, 3 upgd conss, 0 impls, 1785 clqs
presolving (3 rounds: 3 fast, 2 medium, 2 exhaustive):
 91 deleted vars, 0 deleted constraints, 0 added constraints, 0 tightened bounds, 0 added holes, 0 changed sides, 2 changed coefficients
 0 implications, 1785 cliques
presolved problem has 1763 variables (1763 bin, 0 int, 0 impl, 0 cont) and 1846 constraints
     47 constraints of type <knapsack>
   1785 constraints of type <setppc>
      2 constraints of type <linear>
     12 constraints of type <logicor>
Presolving Time: 0.45
transformed 5/9 original solutions to the transformed problem space

 time | node  | left  |LP iter|LP it/n|mem/heur|mdpt |vars |cons |rows |cuts |sepa|confs|strbr|  dualbound   | primalbound  |  gap   | compl. 
 24.0s|     1 |     0 | 35902 |     - |    71M |   0 |1763 |1846 |1833 |   0 |  0 |  14 |  26 | 8.072497e+02 | 8.578825e+02 |   6.27%| unknown
 24.0s|     1 |     0 | 35902 |     - |    71M |   0 |1763 |1846 |1819 |   0 |  0 |  14 |  26 | 8.072497e+02 | 8.578825e+02 |   6.27%| unknown
 24.3s|     1 |     0 | 35920 |     - |    71M |   0 |1763 |1832 |1820 |   1 |  1 |  14 |  26 | 8.072497e+02 | 8.578825e+02 |   6.27%| unknown
 24.6s|     1 |     0 | 35940 |     - |    71M |   0 |1763 |1832 |1821 |   2 |  2 |  14 |  26 | 8.072497e+02 | 8.578825e+02 |   6.27%| unknown
 24.6s|     1 |     0 | 35940 |     - |    71M |   0 |1763 |1832 |1820 |   2 |  2 |  14 |  26 | 8.072497e+02 | 8.578825e+02 |   6.27%| unknown
 24.8s|     1 |     0 | 35979 |     - |    71M |   0 |1763 |1831 |1821 |   3 |  3 |  14 |  26 | 8.072497e+02 | 8.578825e+02 |   6.27%| unknown
 31.6s|     1 |     2 | 38255 |     - |    78M |   0 |1763 |1833 |1821 |   3 |  5 |  16 |  47 | 8.106793e+02 | 8.578825e+02 |   5.82%| unknown
*36.5s|     6 |     1 | 41937 |2607.0 |strongbr|   2 |1763 |1571 |1809 |   3 |  2 |  30 | 102 | 8.248727e+02 | 8.559626e+02 |   3.77%|  59.42%

SCIP Status        : problem is solved [optimal solution found]
Solving Time (sec) : 36.83
Solving Nodes      : 7 (total of 10 nodes in 4 runs)
Primal Bound       : +8.55962606706579e+02 (11 solutions)
Dual Bound         : +8.55962606706579e+02
Gap                : 0.00 %
Solve Status: optimal
Solve Time: 36.83 seconds
